ioscaa1@Bogdan:~$ nano 973d699ec01b88da869233a79aaa1912.cnf
ioscaa1@Bogdan:~$ minisat 973d699ec01b88da869233a79aaa1912.cnf 973d699ec01b88da869233a79aaa1912.out
WARNING: for repeatability, setting FPU to use double precision
============================[ Problem Statistics ]=============================
|                                                                             |
|  Number of variables:           299                                         |
|  Number of clauses:            7796                                         |
|  Parse time:                   0.00 s                                       |
|  Eliminated clauses:           0.00 Mb                                      |
|  Simplification time:          0.01 s                                       |
|                                                                             |
============================[ Search Statistics ]==============================
| Conflicts |          ORIGINAL         |          LEARNT          | Progress |
|           |    Vars  Clauses Literals |    Limit  Clauses Lit/Cl |          |
===============================================================================
|       100 |     285     7679    23670 |     2815      100     21 |  0.001 % |
|       250 |     285     7679    23670 |     3097      250     30 |  0.001 % |
|       475 |     285     7679    23670 |     3406      475     34 |  0.001 % |
|       812 |     285     7679    23670 |     3747      812     31 |  0.001 % |
|      1318 |     285     7679    23670 |     4122     1318     30 |  0.001 % |
|      2077 |     285     7679    23670 |     4534     2077     27 |  0.001 % |
|      3216 |     285     7679    23670 |     4988     3216     26 |  0.001 % |
|      4924 |     285     7679    23670 |     5486     4924     25 |  0.024 % |
|      7486 |     285     7679    23670 |     6035     4676     20 |  0.024 % |
|     11330 |     285     7679    23670 |     6639     5411     20 |  0.008 % |
|     17096 |     285     7679    23670 |     7303     4433     19 |  0.008 % |
|     25745 |     285     7679    23670 |     8033     5736     19 |  0.024 % |
|     38719 |     285     7679    23670 |     8836     6545     20 |  0.008 % |
|     58180 |     285     7679    23670 |     9720     8097     21 |  0.008 % |
|     87372 |     285     7679    23670 |    10692     7627     21 |  0.008 % |
|    131161 |     285     7679    23670 |    11761     8078     18 |  0.008 % |
|    196845 |     285     7679    23670 |    12937     8414     24 |  0.001 % |
|    295371 |     285     7679    23670 |    14231     8714     20 |  0.008 % |
|    443160 |     285     7679    23670 |    15654    12769     23 |  0.022 % |
|    664843 |     285     7679    23670 |    17220    13185     22 |  0.008 % |
|    997368 |     285     7679    23670 |    18942    15494     24 |  0.008 % |
|   1496156 |     285     7679    23670 |    20836    17417     20 |  0.001 % |
|   2244338 |     285     7679    23670 |    22920    20312     30 |  0.008 % |
|   3366612 |     285     7679    23670 |    25212    11473     19 |  0.008 % |
|   5050023 |     285     7679    23670 |    27733    17797     24 |  0.001 % |
|   7575139 |     285     7679    23670 |    30506    14775     25 |  0.008 % |
|  11362814 |     285     7679    23670 |    33557    17159     24 |  0.008 % |
|  17044326 |     285     7679    23670 |    36912    32250     25 |  0.024 % |
|  25566595 |     285     7679    23670 |    40604    17505     21 |  0.008 % |
|  38349998 |     285     7679    23670 |    44664    16580     25 |  0.001 % |
|  57525103 |     285     7679    23670 |    49131    29838     31 |  0.001 % |
|  86287761 |     285     7679    23670 |    54044    31353     21 |  0.024 % |
| 129431749 |     285     7679    23670 |    59448    44189     24 |  0.022 % |
| 194147731 |     285     7679    23670 |    65393    58087     23 |  0.022 % |
| 291221704 |     285     7679    23670 |    71932    31618     21 |  0.022 % |
| 436832664 |     285     7679    23670 |    79126    16914     21 |  0.008 % |
| 655249104 |     285     7679    23670 |    87038    59014     23 |  0.024 % |
| 982873765 |     285     7679    23670 |    95742    68504     46 |  0.001 % |
| 1474310757 |     285     7679    23670 |   105316    52054     22 |  0.001 % |
^C===============================================================================
restarts              : 1827989
conflicts             : 1753724873     (64465 /sec)
decisions             : 2660495286     (0.00 % random) (97798 /sec)
propagations          : 37788285859    (1389065 /sec)
conflict literals     : 48087032843    (35.32 % deleted)
Memory used           : 266.00 MB
CPU time              : 27204.1 s

INDETERMINATE